g3 2 1 0	# problem inst_sans_ref
 44 144 1 0 36	# vars, constraints, objectives, ranges, eqns
 36 1	# nonlinear constraints, objectives
 0 0	# network constraints: nonlinear, linear
 8 8 8	# nonlinear vars in constraints, objectives, both
 0 0 0 1	# linear network variables; functions; arith, flags
 0 0 0 0 0	# discrete variables: binary, integer, nonlinear (b,c,o)
 344 44	# nonzeros in Jacobian, gradients
 0 0	# max name lengths: constraints, variables
 0 0 0 0 0	# common exprs: b,c,o,c1,o1
b
0 0 1
0 0 1
0 0 1
0 0 1
0 0 1
0 0 1
0 0 1
0 0 1
0 0 1
0 0 1
0 0 1
0 0 1
0 0 1
0 0 1
0 0 1
0 0 1
0 0 1
0 0 1
0 0 1
0 0 1
0 0 1
0 0 1
0 0 1
0 0 1
0 0 1
0 0 1
0 0 1
0 0 1
0 0 1
0 0 1
0 0 1
0 0 1
0 0 1
0 0 1
0 0 1
0 0 1
0 0 1
0 0 1
0 0 1
0 0 1
0 0 1
0 0 1
0 0 1
0 0 1
r
4 0
4 0
4 0
4 0
4 0
4 0
4 0
4 0
4 0
4 0
4 0
4 0
4 0
4 0
4 0
4 0
4 0
4 0
4 0
4 0
4 0
4 0
4 0
4 0
4 0
4 0
4 0
4 0
4 0
4 0
4 0
4 0
4 0
4 0
4 0
4 0
1 0
1 0
1 0
1 0
1 0
1 0
1 0
1 0
1 0
1 0
1 0
1 0
1 0
1 0
1 0
1 0
1 0
1 0
1 0
1 0
1 0
1 0
1 0
1 0
1 0
1 0
1 0
1 0
1 0
1 0
1 0
1 0
1 0
1 0
1 0
1 0
1 0
1 0
1 0
1 0
1 0
1 0
1 0
1 0
1 0
1 0
1 0
1 0
1 0
1 0
1 0
1 0
1 0
1 0
1 0
1 0
1 0
1 0
1 0
1 0
1 0
1 0
1 0
1 0
2 -1
2 -1
2 -1
2 -1
2 -1
2 -1
2 -1
2 -1
2 -1
2 -1
2 -1
2 -1
2 -1
2 -1
2 -1
2 -1
2 -1
2 -1
2 -1
2 -1
2 -1
2 -1
2 -1
2 -1
2 -1
2 -1
2 -1
2 -1
2 -1
2 -1
2 -1
2 -1
2 -1
2 -1
2 -1
2 -1
2 0
2 0
2 0
2 0
2 0
2 0
2 0
2 0
C0
o16
o2
v0
v0
C1
o16
o2
v0
v1
C2
o16
o2
v0
v2
C3
o16
o2
v0
v3
C4
o16
o2
v0
v4
C5
o16
o2
v0
v5
C6
o16
o2
v0
v6
C7
o16
o2
v0
v7
C8
o16
o2
v1
v1
C9
o16
o2
v1
v2
C10
o16
o2
v1
v3
C11
o16
o2
v1
v4
C12
o16
o2
v1
v5
C13
o16
o2
v1
v6
C14
o16
o2
v1
v7
C15
o16
o2
v2
v2
C16
o16
o2
v2
v3
C17
o16
o2
v2
v4
C18
o16
o2
v2
v5
C19
o16
o2
v2
v6
C20
o16
o2
v2
v7
C21
o16
o2
v3
v3
C22
o16
o2
v3
v4
C23
o16
o2
v3
v5
C24
o16
o2
v3
v6
C25
o16
o2
v3
v7
C26
o16
o2
v4
v4
C27
o16
o2
v4
v5
C28
o16
o2
v4
v6
C29
o16
o2
v4
v7
C30
o16
o2
v5
v5
C31
o16
o2
v5
v6
C32
o16
o2
v5
v7
C33
o16
o2
v6
v6
C34
o16
o2
v6
v7
C35
o16
o2
v7
v7
C36
n0
C37
n0
C38
n0
C39
n0
C40
n0
C41
n0
C42
n0
C43
n0
C44
n0
C45
n0
C46
n0
C47
n0
C48
n0
C49
n0
C50
n0
C51
n0
C52
n0
C53
n0
C54
n0
C55
n0
C56
n0
C57
n0
C58
n0
C59
n0
C60
n0
C61
n0
C62
n0
C63
n0
C64
n0
C65
n0
C66
n0
C67
n0
C68
n0
C69
n0
C70
n0
C71
n0
C72
n0
C73
n0
C74
n0
C75
n0
C76
n0
C77
n0
C78
n0
C79
n0
C80
n0
C81
n0
C82
n0
C83
n0
C84
n0
C85
n0
C86
n0
C87
n0
C88
n0
C89
n0
C90
n0
C91
n0
C92
n0
C93
n0
C94
n0
C95
n0
C96
n0
C97
n0
C98
n0
C99
n0
C100
n0
C101
n0
C102
n0
C103
n0
C104
n0
C105
n0
C106
n0
C107
n0
C108
n0
C109
n0
C110
n0
C111
n0
C112
n0
C113
n0
C114
n0
C115
n0
C116
n0
C117
n0
C118
n0
C119
n0
C120
n0
C121
n0
C122
n0
C123
n0
C124
n0
C125
n0
C126
n0
C127
n0
C128
n0
C129
n0
C130
n0
C131
n0
C132
n0
C133
n0
C134
n0
C135
n0
C136
n0
C137
n0
C138
n0
C139
n0
C140
n0
C141
n0
C142
n0
C143
n0
O0 0
o54
64
o2
o2
n1.57166
v0
v0
o2
o2
n-0.009767
v0
v1
o2
o2
n0.012604
v0
v2
o2
o2
n-0.002431
v0
v3
o2
o2
n0.009689
v0
v4
o2
o2
n-0.523397
v0
v5
o2
o2
n-0.024311
v0
v6
o2
o2
n-0.458816
v0
v7
o2
o2
n-0.009767
v1
v0
o2
o2
n1.824692
v1
v1
o2
o2
n-0.148844
v1
v2
o2
o2
n0.037177
v1
v3
o2
o2
n-0.117372
v1
v4
o2
o2
n-0.529567
v1
v5
o2
o2
n-0.490326
v1
v6
o2
o2
n-0.078961
v1
v7
o2
o2
n0.012604
v2
v0
o2
o2
n-0.148844
v2
v1
o2
o2
n1.869498
v2
v2
o2
o2
n-0.039205
v2
v3
o2
o2
n-0.762653
v2
v4
o2
o2
n-0.052607
v2
v5
o2
o2
n0.426816
v2
v6
o2
o2
n-0.756188
v2
v7
o2
o2
n-0.002431
v3
v0
o2
o2
n0.037177
v3
v1
o2
o2
n-0.039205
v3
v2
o2
o2
n1.947942
v3
v3
o2
o2
n0.68707
v3
v4
o2
o2
n0.012967
v3
v5
o2
o2
n0.084898
v3
v6
o2
o2
n-0.014418
v3
v7
o2
o2
n0.009689
v4
v0
o2
o2
n-0.117372
v4
v1
o2
o2
n-0.762653
v4
v2
o2
o2
n0.68707
v4
v3
o2
o2
n0.785928
v4
v4
o2
o2
n-0.041319
v4
v5
o2
o2
n-0.192753
v4
v6
o2
o2
n0.029268
v4
v7
o2
o2
n-0.523397
v5
v0
o2
o2
n-0.529567
v5
v1
o2
o2
n-0.052607
v5
v2
o2
o2
n0.012967
v5
v3
o2
o2
n-0.041319
v5
v4
o2
o2
n1.366627
v5
v5
o2
o2
n0.097169
v5
v6
o2
o2
n-0.027671
v5
v7
o2
o2
n-0.024311
v6
v0
o2
o2
n-0.490326
v6
v1
o2
o2
n0.426816
v6
v2
o2
o2
n0.084898
v6
v3
o2
o2
n-0.192753
v6
v4
o2
o2
n0.097169
v6
v5
o2
o2
n0.46526
v6
v6
o2
o2
n-0.154659
v6
v7
o2
o2
n-0.458816
v7
v0
o2
o2
n-0.078961
v7
v1
o2
o2
n-0.756188
v7
v2
o2
o2
n-0.014418
v7
v3
o2
o2
n0.029268
v7
v4
o2
o2
n-0.027671
v7
v5
o2
o2
n-0.154659
v7
v6
o2
o2
n1.139295
v7
v7
k43
25
50
75
100
125
150
175
200
204
208
212
216
220
224
228
232
236
240
244
248
252
256
260
264
268
272
276
280
284
288
292
296
300
304
308
312
316
320
324
328
332
336
340
J0 2
0 0
8 1
J1 3
0 0
1 0
9 1
J2 3
0 0
2 0
10 1
J3 3
0 0
3 0
11 1
J4 3
0 0
4 0
12 1
J5 3
0 0
5 0
13 1
J6 3
0 0
6 0
14 1
J7 3
0 0
7 0
15 1
J8 2
1 0
16 1
J9 3
1 0
2 0
17 1
J10 3
1 0
3 0
18 1
J11 3
1 0
4 0
19 1
J12 3
1 0
5 0
20 1
J13 3
1 0
6 0
21 1
J14 3
1 0
7 0
22 1
J15 2
2 0
23 1
J16 3
2 0
3 0
24 1
J17 3
2 0
4 0
25 1
J18 3
2 0
5 0
26 1
J19 3
2 0
6 0
27 1
J20 3
2 0
7 0
28 1
J21 2
3 0
29 1
J22 3
3 0
4 0
30 1
J23 3
3 0
5 0
31 1
J24 3
3 0
6 0
32 1
J25 3
3 0
7 0
33 1
J26 2
4 0
34 1
J27 3
4 0
5 0
35 1
J28 3
4 0
6 0
36 1
J29 3
4 0
7 0
37 1
J30 2
5 0
38 1
J31 3
5 0
6 0
39 1
J32 3
5 0
7 0
40 1
J33 2
6 0
41 1
J34 3
6 0
7 0
42 1
J35 2
7 0
43 1
J36 2
0 -1
8 1
J37 2
0 -1
9 1
J38 2
0 -1
10 1
J39 2
0 -1
11 1
J40 2
0 -1
12 1
J41 2
0 -1
13 1
J42 2
0 -1
14 1
J43 2
0 -1
15 1
J44 2
1 -1
16 1
J45 2
1 -1
17 1
J46 2
1 -1
18 1
J47 2
1 -1
19 1
J48 2
1 -1
20 1
J49 2
1 -1
21 1
J50 2
1 -1
22 1
J51 2
2 -1
23 1
J52 2
2 -1
24 1
J53 2
2 -1
25 1
J54 2
2 -1
26 1
J55 2
2 -1
27 1
J56 2
2 -1
28 1
J57 2
3 -1
29 1
J58 2
3 -1
30 1
J59 2
3 -1
31 1
J60 2
3 -1
32 1
J61 2
3 -1
33 1
J62 2
4 -1
34 1
J63 2
4 -1
35 1
J64 2
4 -1
36 1
J65 2
4 -1
37 1
J66 2
5 -1
38 1
J67 2
5 -1
39 1
J68 2
5 -1
40 1
J69 2
6 -1
41 1
J70 2
6 -1
42 1
J71 2
7 -1
43 1
J72 2
1 -1
9 1
J73 2
2 -1
10 1
J74 2
3 -1
11 1
J75 2
4 -1
12 1
J76 2
5 -1
13 1
J77 2
6 -1
14 1
J78 2
7 -1
15 1
J79 2
2 -1
17 1
J80 2
3 -1
18 1
J81 2
4 -1
19 1
J82 2
5 -1
20 1
J83 2
6 -1
21 1
J84 2
7 -1
22 1
J85 2
3 -1
24 1
J86 2
4 -1
25 1
J87 2
5 -1
26 1
J88 2
6 -1
27 1
J89 2
7 -1
28 1
J90 2
4 -1
30 1
J91 2
5 -1
31 1
J92 2
6 -1
32 1
J93 2
7 -1
33 1
J94 2
5 -1
35 1
J95 2
6 -1
36 1
J96 2
7 -1
37 1
J97 2
6 -1
39 1
J98 2
7 -1
40 1
J99 2
7 -1
42 1
J100 2
0 -2
8 1
J101 3
0 -1
1 -1
9 1
J102 3
0 -1
2 -1
10 1
J103 3
0 -1
3 -1
11 1
J104 3
0 -1
4 -1
12 1
J105 3
0 -1
5 -1
13 1
J106 3
0 -1
6 -1
14 1
J107 3
0 -1
7 -1
15 1
J108 2
1 -2
16 1
J109 3
1 -1
2 -1
17 1
J110 3
1 -1
3 -1
18 1
J111 3
1 -1
4 -1
19 1
J112 3
1 -1
5 -1
20 1
J113 3
1 -1
6 -1
21 1
J114 3
1 -1
7 -1
22 1
J115 2
2 -2
23 1
J116 3
2 -1
3 -1
24 1
J117 3
2 -1
4 -1
25 1
J118 3
2 -1
5 -1
26 1
J119 3
2 -1
6 -1
27 1
J120 3
2 -1
7 -1
28 1
J121 2
3 -2
29 1
J122 3
3 -1
4 -1
30 1
J123 3
3 -1
5 -1
31 1
J124 3
3 -1
6 -1
32 1
J125 3
3 -1
7 -1
33 1
J126 2
4 -2
34 1
J127 3
4 -1
5 -1
35 1
J128 3
4 -1
6 -1
36 1
J129 3
4 -1
7 -1
37 1
J130 2
5 -2
38 1
J131 3
5 -1
6 -1
39 1
J132 3
5 -1
7 -1
40 1
J133 2
6 -2
41 1
J134 3
6 -1
7 -1
42 1
J135 2
7 -2
43 1
J136 2
0 -1
8 1
J137 2
1 -1
16 1
J138 2
2 -1
23 1
J139 2
3 -1
29 1
J140 2
4 -1
34 1
J141 2
5 -1
38 1
J142 2
6 -1
41 1
J143 2
7 -1
43 1
G0 44
0 0.21
1 -0.75
2 0.93
3 0.88
4 0.35
5 0.67
6 0.74
7 0.92
8 -1.57166
9 0.019533
10 -0.025209
11 0.004862
12 -0.019378
13 0.006793
14 0.048622
15 -0.012368
16 -1.824692
17 0.297687
18 -0.074354
19 0.234744
20 -0.050866
21 -0.539348
22 0.157921
23 -1.869498
24 0.078411
25 -0.074695
26 0.105213
27 0.406367
28 -0.107624
29 -1.947942
30 0.05586
31 -0.025935
32 -0.169796
33 0.028837
34 -0.785928
35 0.082639
36 0.385505
37 -0.058535
38 -1.366627
39 -0.194338
40 0.055342
41 -0.46526
42 0.309318
43 -1.139295
